c Maximum weighted clique instances generated from exactcolors.
c cutoff: 10424677.
c A clique of value > scalef (10424677) defines an improving stable sets for coloring.
p edge 30 0
n 1 10424677
n 2 10424677
n 3 10424677
n 4 10424677
n 5 10424677
n 6 10424677
n 7 10424677
n 8 10424677
n 9 10424677
n 10 10424677
n 11 10424677
n 12 10424677
n 13 10424677
n 14 10424677
n 15 10424677
n 16 10424677
n 17 10424677
n 18 10424677
n 19 10424677
n 20 10424677
n 21 10424677
n 22 10424677
n 23 10424677
n 24 10424677
n 25 10424677
n 26 10424677
n 27 10424677
n 28 10424677
n 29 10424677
n 30 10424677
